NAME 
ROWS
 N  OBJ
 L  ULC[0]  
 L  ULC[1]  
 L  ULC[2]  
 L  ULC[3]  
 L  ULC[4]  
 L  LLC[0]  
 L  LLC[1]  
 L  LLC[2]  
 L  LLC[3]  
 L  LLC[4]  
COLUMNS
    MARKER    'MARKER'                 'INTORG'
    X[0]      OBJ       13
    X[0]      ULC[0]    42
    X[0]      ULC[1]    72
    X[0]      ULC[2]    47
    X[0]      ULC[4]    56
    X[0]      LLC[0]    93
    X[0]      LLC[1]    46
    X[0]      LLC[2]    67
    X[0]      LLC[3]    21
    X[0]      LLC[4]    10
    X[1]      OBJ       20
    X[1]      ULC[0]    81
    X[1]      ULC[1]    84
    X[1]      ULC[2]    41
    X[1]      ULC[3]    63
    X[1]      ULC[4]    16
    X[1]      LLC[0]    32
    X[1]      LLC[1]    100
    X[1]      LLC[2]    77
    X[1]      LLC[3]    12
    X[1]      LLC[4]    93
    X[2]      OBJ       -19
    X[2]      ULC[0]    23
    X[2]      ULC[1]    95
    X[2]      ULC[2]    64
    X[2]      ULC[3]    89
    X[2]      ULC[4]    87
    X[2]      LLC[0]    61
    X[2]      LLC[1]    11
    X[2]      LLC[2]    54
    X[2]      LLC[3]    45
    X[2]      LLC[4]    52
    X[3]      OBJ       3
    X[3]      ULC[0]    81
    X[3]      ULC[1]    69
    X[3]      ULC[2]    70
    X[3]      ULC[3]    62
    X[3]      ULC[4]    81
    X[3]      LLC[0]    67
    X[3]      LLC[1]    77
    X[3]      LLC[2]    24
    X[3]      LLC[3]    86
    X[3]      LLC[4]    1
    X[4]      OBJ       4
    X[4]      ULC[0]    41
    X[4]      ULC[1]    67
    X[4]      ULC[2]    36
    X[4]      ULC[3]    20
    X[4]      ULC[4]    13
    X[4]      LLC[0]    36
    X[4]      LLC[1]    78
    X[4]      LLC[2]    52
    X[4]      LLC[3]    1
    X[4]      LLC[4]    27
    X[5]      OBJ       8
    X[5]      ULC[0]    48
    X[5]      ULC[1]    36
    X[5]      ULC[2]    92
    X[5]      ULC[3]    73
    X[5]      ULC[4]    75
    X[5]      LLC[0]    17
    X[5]      LLC[1]    75
    X[5]      LLC[2]    85
    X[5]      LLC[3]    70
    X[5]      LLC[4]    97
    X[6]      OBJ       -24
    X[6]      ULC[0]    22
    X[6]      ULC[1]    58
    X[6]      ULC[2]    94
    X[6]      ULC[3]    11
    X[6]      ULC[4]    45
    X[6]      LLC[0]    9
    X[6]      LLC[1]    2
    X[6]      LLC[2]    98
    X[6]      LLC[3]    55
    X[6]      LLC[4]    29
    X[7]      OBJ       15
    X[7]      ULC[0]    38
    X[7]      ULC[1]    72
    X[7]      ULC[2]    33
    X[7]      ULC[3]    41
    X[7]      ULC[4]    45
    X[7]      LLC[0]    16
    X[7]      LLC[1]    86
    X[7]      LLC[2]    64
    X[7]      LLC[3]    54
    X[7]      LLC[4]    4
    X[8]      OBJ       -40
    X[8]      ULC[0]    51
    X[8]      ULC[1]    65
    X[8]      ULC[2]    21
    X[8]      ULC[3]    35
    X[8]      ULC[4]    34
    X[8]      LLC[0]    99
    X[8]      LLC[1]    19
    X[8]      LLC[2]    23
    X[8]      LLC[3]    51
    X[8]      LLC[4]    49
    X[9]      OBJ       -18
    X[9]      ULC[0]    80
    X[9]      ULC[1]    91
    X[9]      ULC[2]    79
    X[9]      ULC[3]    56
    X[9]      ULC[4]    58
    X[9]      LLC[0]    68
    X[9]      LLC[1]    50
    X[9]      LLC[2]    36
    X[9]      LLC[3]    81
    X[9]      LLC[4]    66
    Y[0]      OBJ       -37
    Y[0]      ULC[0]    96
    Y[0]      ULC[1]    60
    Y[0]      ULC[2]    76
    Y[0]      ULC[3]    43
    Y[0]      ULC[4]    67
    Y[0]      LLC[1]    82
    Y[0]      LLC[2]    36
    Y[0]      LLC[3]    93
    Y[0]      LLC[4]    41
    Y[1]      OBJ       -34
    Y[1]      ULC[0]    83
    Y[1]      ULC[1]    20
    Y[1]      ULC[2]    62
    Y[1]      ULC[3]    28
    Y[1]      ULC[4]    91
    Y[1]      LLC[0]    96
    Y[1]      LLC[1]    91
    Y[1]      LLC[2]    100
    Y[1]      LLC[3]    91
    Y[1]      LLC[4]    54
    Y[2]      OBJ       -37
    Y[2]      ULC[0]    8
    Y[2]      ULC[1]    16
    Y[2]      ULC[2]    52
    Y[2]      ULC[3]    65
    Y[2]      ULC[4]    16
    Y[2]      LLC[0]    6
    Y[2]      LLC[1]    38
    Y[2]      LLC[2]    67
    Y[2]      LLC[3]    2
    Y[2]      LLC[4]    5
    Y[3]      OBJ       18
    Y[3]      ULC[0]    6
    Y[3]      ULC[1]    76
    Y[3]      ULC[2]    6
    Y[3]      ULC[3]    98
    Y[3]      ULC[4]    98
    Y[3]      LLC[0]    77
    Y[3]      LLC[1]    81
    Y[3]      LLC[2]    49
    Y[3]      LLC[3]    78
    Y[3]      LLC[4]    45
    Y[4]      OBJ       27
    Y[4]      ULC[0]    17
    Y[4]      ULC[1]    68
    Y[4]      ULC[2]    16
    Y[4]      ULC[3]    19
    Y[4]      ULC[4]    73
    Y[4]      LLC[0]    76
    Y[4]      LLC[1]    31
    Y[4]      LLC[2]    85
    Y[4]      LLC[3]    45
    Y[4]      LLC[4]    83
    Y[5]      OBJ       41
    Y[5]      ULC[0]    76
    Y[5]      ULC[1]    92
    Y[5]      ULC[2]    82
    Y[5]      ULC[3]    64
    Y[5]      ULC[4]    62
    Y[5]      LLC[0]    16
    Y[5]      LLC[1]    98
    Y[5]      LLC[2]    46
    Y[5]      LLC[3]    56
    Y[5]      LLC[4]    80
    Y[6]      OBJ       22
    Y[6]      ULC[0]    92
    Y[6]      ULC[1]    95
    Y[6]      ULC[2]    15
    Y[6]      ULC[3]    41
    Y[6]      ULC[4]    45
    Y[6]      LLC[0]    52
    Y[6]      LLC[1]    38
    Y[6]      LLC[2]    26
    Y[6]      LLC[3]    82
    Y[6]      LLC[4]    26
    Y[7]      OBJ       -43
    Y[7]      ULC[0]    56
    Y[7]      ULC[1]    50
    Y[7]      ULC[2]    34
    Y[7]      ULC[3]    22
    Y[7]      ULC[4]    88
    Y[7]      LLC[0]    42
    Y[7]      LLC[1]    22
    Y[7]      LLC[2]    20
    Y[7]      LLC[3]    89
    Y[7]      LLC[4]    24
    Y[8]      OBJ       9
    Y[8]      ULC[0]    45
    Y[8]      ULC[1]    24
    Y[8]      ULC[2]    56
    Y[8]      ULC[3]    8
    Y[8]      ULC[4]    25
    Y[8]      LLC[0]    86
    Y[8]      LLC[1]    73
    Y[8]      LLC[2]    92
    Y[8]      LLC[3]    12
    Y[8]      LLC[4]    48
    Y[9]      OBJ       -29
    Y[9]      ULC[0]    11
    Y[9]      ULC[1]    36
    Y[9]      ULC[2]    25
    Y[9]      ULC[3]    94
    Y[9]      ULC[4]    64
    Y[9]      LLC[0]    51
    Y[9]      LLC[1]    7
    Y[9]      LLC[2]    79
    Y[9]      LLC[3]    39
    Y[9]      LLC[4]    62
    MARKER    'MARKER'                 'INTEND'
RHS
    RHS1      ULC[0]    747
    RHS1      ULC[1]    934
    RHS1      ULC[2]    750
    RHS1      ULC[3]    699
    RHS1      ULC[4]    854
    RHS1      LLC[0]    925
    RHS1      LLC[1]    893
    RHS1      LLC[2]    1168
    RHS1      LLC[3]    599
    RHS1      LLC[4]    773
BOUNDS
 BV BND1      X[0]    
 BV BND1      X[1]    
 BV BND1      X[2]    
 BV BND1      X[3]    
 BV BND1      X[4]    
 BV BND1      X[5]    
 BV BND1      X[6]    
 BV BND1      X[7]    
 BV BND1      X[8]    
 BV BND1      X[9]    
 BV BND1      Y[0]    
 BV BND1      Y[1]    
 BV BND1      Y[2]    
 BV BND1      Y[3]    
 BV BND1      Y[4]    
 BV BND1      Y[5]    
 BV BND1      Y[6]    
 BV BND1      Y[7]    
 BV BND1      Y[8]    
 BV BND1      Y[9]    
ENDATA
